### Angle of repose experiment in uniform magnetic field


### Initialization
# Preliminaries
units           si
atom_style      hybrid granular dipole
atom_modify     sort 10000 0

# periodic x boundaries, fixed y boundaries, fixed -z for floor and fixed shrink wrap for cieling
boundary        f f f

#LIGGGHTS-Public shouuld produce the same answers for any newton flag setting, besides round off
newton          off
soft_particles yes
communicate     single vel yes

# the product of the processors must equal P, the number of processors used when running the file: mpirun -np 4 ...
processors      2 1 2
# Declare domain
# region          domain block 0 .126 0 .018 0 .177 units box
# create_box      2 domain

# read_restart    /home/dustiest/Sikka_Workspace/LIGGGHTS/SIMS/Validations/Piling_Test/Results/Sept_1/restart_filled.static
# read_restart    /home/anmol/Research/Code/LIGGGHTS/SIMS/Validations/Piling_Test/Results/Sept_1/restart_filled.static
# 

# Neighbor skin style - atom pairs within a neighbor cutoff distance = force cutoff + skin distance, styele = bin
neighbor        0.0001 bin
# neigh_modify delay 0, this is the default, rebuild neighbor list every timestep
neigh_modify    delay 0 
### Setup
# Material and interaction properties required
fix             m1 all property/global youngsModulus peratomtype 70e6 70e6
fix             m2 all property/global poissonsRatio peratomtype 0.24 0.24
fix             m3 all property/global coefficientRestitution peratomtypepair 2 0.82 0.82 0.82 0.97
fix             m4 all property/global coefficientFriction peratomtypepair 2 0.45 0.45 0.45 0.16
fix             m5 all property/global coefficientRollingFriction peratomtypepair  2 0.09 0.09 0.09 0.09
fix             m6 all property/global coefficientRollingViscousDamping peratomtypepair  2 0.09 0.09 0.09 0.09
fix             m7 all property/global coeffRollingStiffness scalar 10
fix             m8 all property/global cohesionEnergyDensity peratomtypepair 2 10 10 10 10
fix             m9 all property/global magneticSusceptibility peratomtype 1 1

## box walls - define simulation

fix		        wall_y1 all wall/gran model hertz tangential history cohesion sjkr rolling_friction epsd primitive type 1 yplane 0.0 	
fix		        wall_y2 all wall/gran model hertz tangential history cohesion sjkr rolling_friction epsd primitive type 1 yplane 0.018  	
fix		        wall_z1 all wall/gran model hertz tangential history cohesion sjkr rolling_friction epsd primitive type 1 zplane 0.0        #floor
fix             wall_x1 all wall/gran model hertz tangential history cohesion sjkr rolling_friction epsd primitive type 1 xplane 0.0            
fix             wall_x2 all wall/gran model hertz tangential history cohesion sjkr rolling_friction epsd primitive type 1 xplane 0.126


# Mesh for incline
# fix             cad1 all mesh/surface file meshes/piling_test_incline.STL type 2 scale .0001 move 0.00 0.00 0.167 #rotate axis 1. 0. 0. angle -50.
# fix             cad2 all mesh/surface file meshes/piling_test_incline.STL type 2 scale .0001 move 0.126 0.018 0.167 #rotate axis 0. 1. 0. angle -180.
# fix             granwalls all wall/gran model hertz tangential history cohesion sjkr rolling_friction epsd mesh n_meshes 1 meshes cad1 #cad2

## Pair style
pair_style      gran model hertz tangential history cohesion sjkr rolling_friction epsd torsionTorque on
pair_coeff	    * *  # the asterisks set force field coeefficients for all atom types, but then no other args? ASK TOM

#vGeometry Regions

# Particle floor
region          floor block 0 .126 0 .018 0 .0022 units box
# lattice         fcc 0.002 origin 0 0 0
# create_atoms    1 region floor 
# group           fl region floor
# set             group fl density 2500 diameter 0.001
# fix             floor_fix fl freeze 

# # Wall incline
# region          incline_wlp1 plane 0.0565 0.000 0.000 -1.00 0.00 0.00
# region          incline_wlp2 plane 0.0565 0.000 0.05 -0.64 0.00 -0.76
# region          incline_wlp3 plane 0.055 0.000 0.05 0.64 0.00 0.76
# region          incline_wl intersect 3 incline_wlp1 incline_wlp2 incline_wlp3
# # Wall incline
# region          incline_wrp1 plane 0.0695 0.000 0.000 1.00 0.00 0.00
# region          incline_wrp2 plane 0.0695 0.000 0.05 0.64 0.00 -0.76
# region          incline_wrp3 plane 0.071 0.000 0.05 -0.64 0.00 0.76
# region          incline_wr intersect 3 incline_wrp1 incline_wrp2 incline_wrp3

# region          funnel_wall union 2 incline_wl incline_wr
# fix             wall_fx all wall/region funnel_wall lj93 1.0 1.0 2.5


## EMBED PARTICLES ON INCLINES AND FLOOR
# Particle incline
region          incline_lp1 plane 0.0565 0.000 0.000 -1.00 0.00 0.00
region          incline_lp2 plane 0.0565 0.000 0.056 -0.64 0.00 -0.76
region          incline_lp3 plane 0.054 0.000 0.056 0.64 0.00 0.76
region          incline_l intersect 3 incline_lp1 incline_lp2 incline_lp3
# lattice         fcc 0.001
# create_atoms    1 region incline_l
# group           ic_l region incline_l
# set             group ic_l density 2500 diameter 0.001
# fix             icl_fix ic_l freeze 

# Particle incline
region          incline_rp1 plane 0.0695 0.000 0.000 1.00 0.00 0.00
region          incline_rp2 plane 0.0695 0.000 0.056 0.64 0.00 -0.76
region          incline_rp3 plane 0.072 0.000 0.056 -0.64 0.00 0.76
region          incline_r intersect 3 incline_rp1 incline_rp2 incline_rp3
# lattice         fcc 0.001
# create_atoms    1 region incline_r
# group           ic_r region incline_r
# set             group ic_r density 2500 diameter 0.001
# fix             icr_fix ic_r freeze 

## Union region
region          freeze_geometry union 3 floor incline_l incline_r
# lattice         fcc 0.0015
# create_atoms    1 region freeze_geometry
group           pts_walls region freeze_geometry
# set             group pts_walls density 2500 diameter 0.001

# particles and their distribution
# fix	            pts1 all particletemplate/sphere 15485863 atom_type 2 density constant 2500 radius constant 0.0005 
# fix             pdd1 all particledistribution/discrete 15487517 1 pts1 1.0

# # region and insertion
# fix             inface all mesh/surface file meshes/insertion_face.STL type 1 scale 0.001
# region          insertion_b block EDGE EDGE EDGE EDGE 0.135 0.175
region          incline_gl plane 0.0565 0.000 0.056 0.64 0.00 0.76
region          incline_gr plane 0.0695 0.000 0.056 -0.64 0.00 0.76
region          stopper_g plane 0.00 0.00 0.056 0.00 0.00 1.00
region          prtcls_reg intersect 3 incline_gl incline_gr stopper_g
group           prtcls region prtcls_reg
# fix             ins prtcls insert/rate/region seed 123457 distributiontemplate pdd1 nparticles 58000 &
                # particlerate 100000 insert_every 1000 overlapcheck yes region insertion_b ntry_mc 10000

# Create stopper wall 
fix             stopper all wall/gran model hertz tangential history primitive type 1 zplane 0.056

# # Gravity
fix             grav all gravity 9.81 vector 0.0 0.0 -1.0

### Detailed settings
# apply nve integration to all particles that are inserted as single particles
fix		        integr prtcls nve/sphere update dipole

# Time step
timestep        .000001 #seconds (1 microsecond)

## Thermo settings
# thermo style custom says what thermo data we want printed at each thermo timestep - timestep, num atoms, kinetic energy, volume
thermo_style 	custom step atoms ke vol cpu
# thermo output every 10000 timesteps
thermo		    1
# LIGGGHTS will ignore last particles and will not normalize against num atoms
thermo_modify	lost ignore norm no

# Check time step and initialize dump file
fix             ctg all check/timestep/gran 1 0.01 0.01
run             1
unfix           ctg

# Create imaging information
dump            dmp all custom 10000 post/dump*.post id type x y z vx vy vz radius fx fy fz mass

# STL dump files
# dump		    dumpstl1 all mesh/stl 1000 post_stl/dumpcad*.stl

### execution and further settings

# ensure particles are static 
velocity       all set 0. 0. 0.


## freeze the walls
fix             walls_freeze pts_walls freeze 


# # Fill the funnel
# run             1000000 upto


# # Stop insertion
# unfix           ins

# fix magnetic
fix	            mag prtcls magnetic    0   0   6e-4

# Settle particles
run             1000000 


# pull the stopper
unfix           stopper

#01 0250000
run             250000
write_restart   continuedrop.static

#02 0500000
run             250000
write_restart   continuedrop.static

#03 0750000
run             250000
write_restart   continuedrop.static

#04 1000000
run             250000
write_restart   continuedrop.static

#05 1250000
run             250000
write_restart   continuedrop.static

#06 1500000
run             250000
write_restart   continuedrop.static

#07 1750000
run             250000
write_restart   continuedrop.static

#08 2000000
run             250000
write_restart   continuedrop.static

#09 2250000
run             250000
write_restart   continuedrop.static

#10 2500000
run             250000
write_restart   continuedrop.static

#11 2750000
run             250000
write_restart   continuedrop.static

#12 3000000
run             250000
write_restart   continuedrop.static


undump		dmp