atom_style	hybrid granular dipole
boundary	f f f
newton		off
atom_modify	sort 10000 0

communicate	single vel yes
units		si
processors	1 1 1

variable reg_dim equal 10 #meters

region		reg block -${reg_dim} ${reg_dim} -${reg_dim} ${reg_dim} -${reg_dim} ${reg_dim} units box
create_box	1 reg
neighbor	5 bin
neigh_modify	delay 0 every 1

hard_particles	yes


fix 		m1 all property/global youngsModulus peratomtype 6e6
fix 		m2 all property/global poissonsRatio peratomtype 0.278
fix 		m3 all property/global coefficientRestitution peratomtypepair 1 0.06
fix 		m4 all property/global coefficientFriction peratomtypepair 1 0.4
fix 		m6 all property/global cohesionEnergyDensity peratomtypepair 1 0.01

fix m7 all property/global magneticSusceptibility peratomtype 1


pair_style gran model hertz tangential history #cohesion sjkr
pair_coeff	* *

timestep	1e-10 # seconds

#index of simulations
# variable a loop 10
#radius of atoms
variable atom_rad equal 1.0 #meters
#diameter of atoms
variable atom_dia equal 2*${atom_rad}


create_atoms	1 single 0 0 0
create_atoms	1 single 0 0 ${atom_dia}
set		atom 1 diameter ${atom_dia}
set     atom 2 diameter ${atom_dia}

# Magnetic force is gauss (B mag field)
#                       x   y   z
fix	mag all magnetic    0   0   1

# Define loops

label loop
variable c loop 38 50
#separation between the atoms
variable sep equal ${c}*${atom_rad}/10
print "separation distance = ${sep}"

create_atoms	1 single 0 ${sep} ${atom_rad}
group           atom_j id 3

set     atom 3 diameter ${atom_dia}


dump  dmp all custom 1 parallel/susc1/post_par3_triangle_inclusion/dump_$c_*.liggghts id type fx fy fz x y z radius mux muy muz
# dump  dmp atom_j custom 1 perpendicular/susc1/post_par3_triangle_SHA/dump_$c_*.liggghts id type fx fy fz x y z radius mux muy muz
# dump  dmp atom_j custom 1 perpendicular_plane/susc1/post_par3_triangle_SHA/dump_$c_*.liggghts id type fx fy fz x y z radius mux muy muz

#fix	1 nve_group nve/sphere

reset_timestep 0
run	3
undump	dmp
delete_atoms group  atom_j
next c
#undump dmp_local
#uncompute deltas
jump in.mag_3 loop