atom_style	hybrid granular dipole
boundary	f f f
newton		off
atom_modify	sort 10000 0

communicate	single vel yes
units		si
processors	1 1 1


soft_particles yes

# variable reg_dim equal 10 #meters

region		reg block -1 1 -1 1 0 10 units box
create_box	1 reg
neighbor	2 bin
neigh_modify	delay 0 every 1

fix 		m1 all property/global youngsModulus peratomtype 0.5e6
fix 		m2 all property/global poissonsRatio peratomtype 0.3
fix 		m3 all property/global coefficientRestitution peratomtypepair 1 0.06
fix 		m4 all property/global coefficientFriction peratomtypepair 1 0.3
# fix 		m6 all property/global cohesionEnergyDensity peratomtypepair 1 1


pair_style gran model hertz tangential history
pair_coeff	* *

timestep	10e-6 # seconds

#radius of atoms
variable atom_rad equal 0.5 #meters
#diameter of atoms
variable atom_dia equal 2*${atom_rad}
# #separation between the atoms
# variable sep equal 5*${atom_rad}

# create_atoms	1 single 0 0 
create_atoms	1 single 0 0 5
set		        atom 1 diameter ${atom_dia} mass 1.0
group           atom_i id 1


create_atoms	1 single 0 0 3.9
set             atom 2 diameter ${atom_dia} mass 1.0
group           atom_j id 2

velocity        atom_i set 0 0 -5
velocity        atom_j set 0 0  5

fix             int all nve/sphere


dump            dmp all custom 1000 post_3/dump*.liggghts id type fx fy fz vx vy vz x y z radius mass
run	            10000

